5 2
6 2
7 2
8 1
9 3
10 5
11 4
12 5
5 4
6 2
7 6
8 3
9 6
10 2
11 3
12 5
5 4
6 6
7 3
8 7
9 6
10 6
11 6
12 7
5 7
6 8
7 8
8 7
9 7
10 5
11 7
12 6
5 8
6 6
7 9
8 9
9 8
10 9
11 9
12 9
5 8
6 7
7 6
8 7
9 8
10 9
11 8
12 7
5 11
6 9
7 11
8 9
9 11
10 10
11 7
12 11
5 11
6 8
7 8
8 10
9 9
10 11
11 10
12 11
5 12
6 13
7 10
8 13
9 13
10 12
11 10
12 13
5 14
6 11
7 13
8 14
9 13
10 14
11 10
12 12
